     Program PWSCF v.6.4.1 starts on  9Jun2021 at 13:31:34

     R & G space division:  proc/nbgrp/npool/nimage =     160
     Waiting for input...
     Reading input from standard input

     Current dimensions of program PWSCF are:
     Max number of different atomic species (ntypx) = 10
     Max number of k-points (npk) =  40000
     Max angular momentum in pseudopotentials (lmaxx) =  3

     bravais-lattice index     =            0
     lattice parameter (alat)  =      30.0466  a.u.
     unit-cell volume          =   29549.5915 (a.u.)^3
     number of atoms/cell      =           73
     number of atomic types    =            2
     number of electrons       =       638.00
     number of Kohn-Sham states=          319
     kinetic-energy cutoff     =      30.0000  Ry
     charge density cutoff     =     120.0000  Ry
     convergence threshold     =      1.0E-06
     mixing beta               =       0.7000
     number of iterations used =            8  plain     mixing
     Exchange-correlation      = PBE ( 1  4  3  4 0 0)

     celldm(1)=  30.046646  celldm(2)=   0.000000  celldm(3)=   0.000000
     celldm(4)=   0.000000  celldm(5)=   0.000000  celldm(6)=   0.000000

     crystal axes: (cart. coord. in units of alat)
               a(1) = (   1.000000   0.000000   0.000000 )
               a(2) = (  -0.500000   0.866025   0.000000 )
               a(3) = (   0.000000   0.000000   1.257862 )

     reciprocal axes: (cart. coord. in units 2 pi/alat)
               b(1) = (  1.000000  0.577350  0.000000 )
               b(2) = (  0.000000  1.154701  0.000000 )
               b(3) = (  0.000000  0.000000  0.795000 )

     PseudoPot. # 1 for S  read from file:
     /ptmp/alaa/qe/2/pseudo/S_ONCV_PBE-1.0.upf
     MD5 check sum: fd2be156b12988b34d86a616e2d6cb24
     Pseudo is Norm-conserving, Zval =  6.0
     Generated using ONCVPSP code by D. R. Hamann
     Using radial grid of  602 points,  4 beta functions with:
                l(1) =   0
                l(2) =   0
                l(3) =   1
                l(4) =   1

     PseudoPot. # 2 for Mo read from file:
     /ptmp/alaa/qe/2/pseudo/Mo_ONCV_PBE-1.0.upf
     MD5 check sum: c4812f694c3c41276dc43bc60b903e55
     Pseudo is Norm-conserving, Zval = 14.0
     Generated using ONCVPSP code by D. R. Hamann
     Using radial grid of  602 points,  6 beta functions with:
                l(1) =   0
                l(2) =   0
                l(3) =   1
                l(4) =   1
                l(5) =   2
                l(6) =   2

     atomic species   valence    mass     pseudopotential
        S              6.00    16.00000     S ( 1.00)
        Mo            14.00    42.00000     Mo( 1.00)

     No symmetry found

   Cartesian axes

     site n.     atom                  positions (alat units)
         1           Mo  tau(   1) = (   0.1003610   0.0579686   0.1932390  )
         2           S   tau(   2) = (   0.0000007   0.1156657   0.2912434  )
         3           S   tau(   3) = (   0.0000007   0.1156657   0.0952346  )
         4           Mo  tau(   4) = (  -0.0000011   0.2311227   0.1932390  )
         5           S   tau(   5) = (  -0.1014444   0.2882743   0.2911536  )
         6           S   tau(   6) = (  -0.1014444   0.2882743   0.0953244  )
         7           Mo  tau(   7) = (  -0.1009082   0.4036425   0.1932390  )
         8           S   tau(   8) = (  -0.2017227   0.4609126   0.2909206  )
         9           S   tau(   9) = (  -0.2017227   0.4609126   0.0955574  )
        10           Mo  tau(  10) = (  -0.2009142   0.5768564   0.1932390  )
        11           S   tau(  11) = (  -0.3010906   0.6340750   0.2911538  )
        12           S   tau(  12) = (  -0.3010906   0.6340750   0.0953242  )
        13           Mo  tau(  13) = (  -0.2998663   0.7505016   0.1932390  )
        14           S   tau(  14) = (  -0.3998511   0.8082305   0.2912433  )
        15           S   tau(  15) = (  -0.3998511   0.8082305   0.0952347  )
        16           Mo  tau(  16) = (   0.3011554   0.0599915   0.1932390  )
        17           S   tau(  17) = (   0.2007920   0.1159491   0.2912754  )
        18           S   tau(  18) = (   0.2007920   0.1159491   0.0952026  )
        19           Mo  tau(  19) = (   0.2025209   0.2308478   0.1932390  )
        20           S   tau(  20) = (   0.1014452   0.2882720   0.2911535  )
        21           S   tau(  21) = (   0.1014452   0.2882720   0.0953244  )
        22           Mo  tau(  22) = (   0.1009074   0.4036398   0.1932390  )
        23           S   tau(  23) = (   0.0000013   0.4614519   0.2909438  )
        24           S   tau(  24) = (   0.0000013   0.4614519   0.0955342  )
        25           Mo  tau(  25) = (  -0.0000012   0.5773748   0.1932390  )
        26           S   tau(  26) = (  -0.1003926   0.6353350   0.2909437  )
        27           S   tau(  27) = (  -0.1003926   0.6353350   0.0955343  )
        28           Mo  tau(  28) = (  -0.1000084   0.7516278   0.1932390  )
        29           S   tau(  29) = (  -0.1996490   0.8097736   0.2911542  )
        30           S   tau(  30) = (  -0.1996490   0.8097736   0.0953238  )
        31           Mo  tau(  31) = (   0.4999954   0.0613809   0.1932390  )
        32           S   tau(  32) = (   0.4027198   0.1223617   0.2910161  )
        33           S   tau(  33) = (   0.4027198   0.1223617   0.0954619  )
        34           Mo  tau(  34) = (   0.4094892   0.2364367   0.1932390  )
        35           S   tau(  35) = (   0.3073226   0.2876149   0.2910166  )
        36           S   tau(  36) = (   0.3073226   0.2876149   0.0954614  )
        37           Mo  tau(  37) = (   0.3031531   0.4023509   0.1932390  )
        38           S   tau(  38) = (   0.2017281   0.4609081   0.2909196  )
        39           S   tau(  39) = (   0.2017281   0.4609081   0.0955584  )
        40           Mo  tau(  40) = (   0.2009139   0.5768544   0.1932390  )
        41           S   tau(  41) = (   0.1003936   0.6353342   0.2909437  )
        42           S   tau(  42) = (   0.1003936   0.6353342   0.0955343  )
        43           Mo  tau(  43) = (   0.1000037   0.7516279   0.1932390  )
        44           S   tau(  44) = (  -0.0000013   0.8102974   0.2909214  )
        45           S   tau(  45) = (  -0.0000013   0.8102974   0.0955566  )
        46           Mo  tau(  46) = (   0.6988375   0.0599980   0.1932390  )
        47           S   tau(  47) = (   0.5972740   0.1223701   0.2910148  )
        48           S   tau(  48) = (   0.5972740   0.1223701   0.0954631  )
        49           Mo  tau(  49) = (   0.5904967   0.2364464   0.1932390  )
        50           Mo  tau(  50) = (   0.5000015   0.3932129   0.1932390  )
        51           S   tau(  51) = (   0.4046003   0.4561081   0.2910172  )
        52           S   tau(  52) = (   0.4046003   0.4561081   0.0954608  )
        53           Mo  tau(  53) = (   0.4013640   0.5752504   0.1932390  )
        54           S   tau(  54) = (   0.3010949   0.6340732   0.2911531  )
        55           S   tau(  55) = (   0.3010949   0.6340732   0.0953249  )
        56           Mo  tau(  56) = (   0.2998653   0.7505023   0.1932390  )
        57           S   tau(  57) = (   0.1996478   0.8097766   0.2911535  )
        58           S   tau(  58) = (   0.1996478   0.8097766   0.0953245  )
        59           Mo  tau(  59) = (   0.8996376   0.0579702   0.1932390  )
        60           S   tau(  60) = (   0.7992067   0.1159528   0.2912752  )
        61           S   tau(  61) = (   0.7992067   0.1159528   0.0952028  )
        62           Mo  tau(  62) = (   0.7974765   0.2308523   0.1932390  )
        63           S   tau(  63) = (   0.6926749   0.2876196   0.2910145  )
        64           S   tau(  64) = (   0.6926749   0.2876196   0.0954635  )
        65           Mo  tau(  65) = (   0.6968528   0.4023596   0.1932390  )
        66           S   tau(  66) = (   0.5954067   0.4561132   0.2910164  )
        67           S   tau(  67) = (   0.5954067   0.4561132   0.0954616  )
        68           Mo  tau(  68) = (   0.5986405   0.5752551   0.1932390  )
        69           S   tau(  69) = (   0.5000025   0.6341998   0.2912756  )
        70           S   tau(  70) = (   0.5000025   0.6341998   0.0952024  )
        71           Mo  tau(  71) = (   0.5000007   0.7501651   0.1932390  )
        72           S   tau(  72) = (   0.3998537   0.8082312   0.2912434  )
        73           S   tau(  73) = (   0.3998537   0.8082312   0.0952346  )

     number of k points=     4
                       cart. coord. in units 2pi/alat
        k(    1) = (   0.0000000   0.0000000   0.0000000), wk =   0.5000000
        k(    2) = (   0.0000000  -0.5773503   0.0000000), wk =   0.5000000
        k(    3) = (   0.5000000  -0.2886751   0.0000000), wk =   0.5000000
        k(    4) = (  -0.5000000  -0.2886751   0.0000000), wk =   0.5000000

     Initial potential from superposition of free atoms

     starting charge  635.23689, renormalised to  638.00000

     negative rho (up, down):  1.233E-02 0.000E+00
     Starting wfcs are random

     Self-consistent Calculation

     iteration #  1     ecut=    30.00 Ry     beta= 0.70
     Davidson diagonalization with overlap
     ethr =  1.00E-02,  avg # of iterations = 10.2

     Threshold (ethr) on eigenvalues was too large:
     Diagonalizing with lowered threshold

     Davidson diagonalization with overlap
     ethr =  5.20E-04,  avg # of iterations =  4.8

     negative rho (up, down):  1.970E-03 0.000E+00

     total energy              =   -4415.81669527 Ry
     Harris-Foulkes estimate   =   -4417.17546570 Ry
     estimated scf accuracy    <       2.24149672 Ry

[...]

     negative rho (up, down):  1.026E-07 0.000E+00

[...]

     total energy              =   -4416.58466730 Ry
     Harris-Foulkes estimate   =   -4416.58466757 Ry
     estimated scf accuracy    <       0.00000125 Ry

     iteration # 21     ecut=    30.00 Ry     beta= 0.70
     Davidson diagonalization with overlap
     ethr =  1.96E-10,  avg # of iterations =  4.0

     End of self-consistent calculation

          k = 0.0000 0.0000 0.0000 ( 81851 PWs)   bands (ev):

   -61.9515 -61.9482 -61.9482 -61.9397 -61.9330 -61.9321 -61.9320 -61.9218
   -61.9216 -61.9167 -61.9166 -61.9157 -61.9132 -61.9126 -61.9124 -61.9069
   -61.8844 -61.8729 -61.8728 -61.8710 -61.8621 -61.8615 -61.8614 -61.8420
   -61.8416 -36.2690 -36.2689 -36.2237 -36.2118 -36.2118 -36.2038 -36.2038
   -36.1998 -36.1975 -36.1878 -36.1878 -36.1620 -36.1483 -36.1483 -36.1403
   -36.1172 -36.1172 -36.0770 -36.0656 -36.0623 -36.0611 -36.0611 -36.0581
   -36.0483 -36.0476 -36.0474 -36.0449 -36.0449 -36.0448 -36.0448 -36.0321
   -36.0246 -36.0245 -36.0148 -36.0148 -36.0135 -36.0090 -36.0089 -36.0076
   -36.0073 -36.0072 -35.9986 -35.9985 -35.9953 -35.9841 -35.9841 -35.9813
   -35.9809 -35.9750 -35.9749 -35.9715 -35.9715 -35.9679 -35.9602 -35.9602
   -35.9560 -35.9560 -35.9550 -35.9542 -35.9531 -35.9530 -35.9525 -35.9421
   -35.9377 -35.9373 -35.9259 -35.9259 -35.9070 -35.9025 -35.9024 -35.8607
   -35.8606 -35.8576 -35.6740 -35.6736 -15.1151 -14.6190 -14.6189 -14.5932
   -14.5738 -14.5737 -14.4611 -13.8273 -13.8199 -13.8199 -13.7674 -13.7673
   -13.7208 -13.6528 -13.6518 -13.6517 -13.6146 -13.5864 -13.5751 -13.5750
   -13.5487 -13.5487 -13.5294 -13.5235 -13.5234 -13.3334 -13.3333 -13.3132
   -13.2579 -13.2578 -13.2241 -13.2206 -13.1948 -13.1948 -13.1877 -13.1748
   -13.1748 -13.1592 -13.1592 -13.1536 -13.1311 -13.1311 -13.0794 -13.0095
   -13.0094 -12.9891 -12.9890 -12.9781  -6.6945  -6.6446  -6.5883  -6.5882
    -6.5680  -6.4692  -6.4691  -6.2895  -6.2601  -6.2415  -6.2250  -6.2250
    -6.1996  -6.1996  -6.1963  -6.1693  -6.1421  -6.1420  -6.1168  -6.1166
    -6.1111  -6.1020  -6.1020  -6.0850  -6.0850  -6.0774  -6.0774  -6.0519
    -5.9282  -5.7494  -5.7494  -5.7098  -5.5549  -5.5549  -5.5417  -5.4818
    -5.4817  -5.2988  -5.2369  -5.2369  -5.1979  -5.0615  -5.0474  -5.0474
    -5.0407  -5.0405  -5.0099  -4.9941  -4.9941  -4.9682  -4.9682  -4.9673
    -4.9654  -4.9107  -4.9107  -4.7901  -4.7900  -4.7458  -4.7314  -4.7280
    -4.7280  -4.6475  -4.6309  -4.6309  -4.3838  -4.3838  -4.3789  -4.3537
    -4.3536  -4.3021  -4.3012  -4.3011  -4.2283  -4.2283  -4.2245  -4.2031
    -4.1732  -4.1731  -4.1415  -4.1414  -4.1326  -4.1135  -4.1134  -4.1005
    -4.0395  -4.0393  -4.0392  -4.0297  -3.8824  -3.8304  -3.8304  -3.7301
    -3.6803  -3.6803  -3.5225  -3.5224  -3.4797  -3.4796  -3.4702  -3.2845
    -3.2844  -3.2745  -3.2724  -3.2724  -3.2149  -3.2090  -3.2090  -3.2081
    -3.1573  -3.1573  -3.1455  -3.0940  -3.0939  -3.0728  -2.9362  -2.9362
    -2.9127  -2.8839  -2.8719  -2.8469  -2.8468  -2.8163  -2.8162  -2.7917
    -2.7355  -2.6587  -2.6586  -2.5661  -2.5638  -2.5637  -2.4855  -2.4854
    -2.2885  -2.2875  -2.2875  -2.2522  -2.2501  -2.2018  -2.2018  -2.1873
    -2.1805  -2.1804  -2.1671  -2.1671  -2.1129  -1.9913  -1.9488  -1.9487
    -1.8919  -1.8919  -1.8855  -1.8424  -1.8423  -1.8006  -1.7529  -1.7528
    -1.5931  -1.5883  -1.4874  -1.4874  -1.4455  -1.4455  -1.4344  -1.3440
    -1.3102  -1.3102  -1.2381  -1.2380  -1.2086  -1.0811  -0.9455

[...]

          k = 0.5000-0.2887 0.0000 ( 82012 PWs)   bands (ev):

[...]

          k =-0.5000-0.2887 0.0000 ( 82012 PWs)   bands (ev):

   -61.9505 -61.9494 -61.9483 -61.9391 -61.9365 -61.9320 -61.9271 -61.9235
   -61.9216 -61.9187 -61.9172 -61.9139 -61.9133 -61.9124 -61.9123 -61.9069
   -61.8844 -61.8730 -61.8728 -61.8711 -61.8619 -61.8617 -61.8614 -61.8420
   -61.8416 -36.2791 -36.2722 -36.2280 -36.2206 -36.2167 -36.1971 -36.1961
   -36.1889 -36.1828 -36.1759 -36.1730 -36.1651 -36.1530 -36.1462 -36.1376
   -36.1221 -36.0977 -36.0905 -36.0866 -36.0781 -36.0727 -36.0690 -36.0618
   -36.0602 -36.0584 -36.0486 -36.0460 -36.0433 -36.0356 -36.0304 -36.0293
   -36.0250 -36.0244 -36.0181 -36.0170 -36.0166 -36.0125 -36.0086 -36.0083
   -36.0054 -36.0047 -36.0029 -35.9988 -35.9958 -35.9928 -35.9842 -35.9808
   -35.9760 -35.9746 -35.9736 -35.9691 -35.9674 -35.9648 -35.9608 -35.9558
   -35.9545 -35.9537 -35.9528 -35.9522 -35.9500 -35.9480 -35.9412 -35.9378
   -35.9374 -35.9309 -35.9267 -35.9140 -35.9127 -35.9108 -35.8995 -35.8738
   -35.8613 -35.8584 -35.6745 -35.6738 -14.9941 -14.9511 -14.7262 -14.6744
   -14.2802 -14.2510 -14.2338 -14.1579 -14.0662 -13.9734 -13.7810 -13.7617
   -13.7463 -13.6876 -13.6844 -13.6747 -13.6459 -13.6142 -13.5245 -13.4824
   -13.4445 -13.4417 -13.3948 -13.3648 -13.3636 -13.3557 -13.3335 -13.3200
   -13.3096 -13.2998 -13.2928 -13.2902 -13.2901 -13.2342 -13.2296 -13.2176
   -13.1245 -13.1205 -13.1190 -13.1030 -13.0896 -13.0762 -13.0746 -13.0678
   -13.0640 -13.0501 -12.9792 -12.9526  -6.8112  -6.6091  -6.6021  -6.5808
    -6.5032  -6.4701  -6.4570  -6.3424  -6.3322  -6.3135  -6.2940  -6.2882
    -6.2523  -6.2207  -6.1982  -6.1946  -6.1624  -6.1436  -6.1091  -6.0804
    -6.0360  -6.0223  -5.9812  -5.9491  -5.9337  -5.9210  -5.9065  -5.8993
    -5.8751  -5.8588  -5.8474  -5.8433  -5.7597  -5.7010  -5.6173  -5.6155
    -5.3828  -5.3687  -5.3580  -5.1693  -5.1220  -5.0739  -5.0588  -5.0459
    -5.0108  -4.9773  -4.9548  -4.9254  -4.9245  -4.9031  -4.9030  -4.8971
    -4.8808  -4.8534  -4.8450  -4.8256  -4.8118  -4.7959  -4.7853  -4.7456
    -4.7136  -4.6206  -4.6193  -4.5789  -4.5286  -4.5200  -4.5179  -4.4830
    -4.4588  -4.3677  -4.3371  -4.2679  -4.2603  -4.2583  -4.2321  -4.2215
    -4.1783  -4.1633  -4.1470  -4.1234  -4.1171  -4.0546  -4.0536  -4.0476
    -3.9572  -3.9385  -3.9190  -3.9110  -3.9025  -3.8897  -3.8454  -3.8176
    -3.7301  -3.7163  -3.7156  -3.6566  -3.6123  -3.5086  -3.5018  -3.4688
    -3.3784  -3.3174  -3.2648  -3.2381  -3.1931  -3.1766  -3.1239  -3.0714
    -3.0168  -2.9802  -2.9756  -2.9418  -2.8973  -2.8674  -2.8622  -2.8403
    -2.8187  -2.8109  -2.8038  -2.7737  -2.7700  -2.7680  -2.7607  -2.7239
    -2.7234  -2.7213  -2.7077  -2.6855  -2.6487  -2.6483  -2.5618  -2.5614
    -2.5371  -2.5167  -2.5140  -2.5105  -2.4109  -2.3029  -2.2478  -2.1555
    -2.1504  -2.1442  -2.1120  -2.0622  -2.0324  -1.9944  -1.9902  -1.8839
    -1.8823  -1.8716  -1.8566  -1.7948  -1.7674  -1.7267  -1.7060  -1.6344
    -1.6077  -1.6070  -1.5817  -1.5720  -1.5581  -1.5196  -1.4919  -1.3736
    -1.2677  -1.2593  -1.2086  -1.1929  -1.0666  -1.0593  -1.0218

     highest occupied level (ev):    -0.9455

!    total energy              =   -4416.58466719 Ry
     Harris-Foulkes estimate   =   -4416.58466751 Ry
     estimated scf accuracy    <       0.00000036 Ry

     The total energy is the sum of the following terms:

     one-electron contribution =  -27257.80284626 Ry
     hartree contribution      =   13615.27971104 Ry
     xc contribution           =    -607.21368667 Ry
     ewald contribution        =    9833.15215470 Ry

     convergence has been achieved in  21 iterations

     Writing output data file unfold.save/

     General routines

     Parallel routines

   This run was terminated on:  13:36:52   9Jun2021

   JOB DONE.