     Program PWSCF v.6.4.1 starts on  9Jun2021 at 13:41:56

     R & G space division:  proc/nbgrp/npool/nimage =     160
     Waiting for input...
     Reading input from standard input

     Current dimensions of program PWSCF are:
     Max number of different atomic species (ntypx) = 10
     Max number of k-points (npk) =  40000
     Max angular momentum in pseudopotentials (lmaxx) =  3

     bravais-lattice index     =            0
     lattice parameter (alat)  =      30.0466  a.u.
     unit-cell volume          =   29549.5915 (a.u.)^3
     number of atoms/cell      =           73
     number of atomic types    =            2
     number of electrons       =       638.00
     number of Kohn-Sham states=          638
     kinetic-energy cutoff     =      30.0000  Ry
     charge density cutoff     =     120.0000  Ry
     convergence threshold     =      1.0E-06
     mixing beta               =       0.7000
     number of iterations used =            8  plain     mixing
     Exchange-correlation      = PBE ( 1  4  3  4 0 0)
     Non magnetic calculation with spin-orbit

     celldm(1)=  30.046646  celldm(2)=   0.000000  celldm(3)=   0.000000
     celldm(4)=   0.000000  celldm(5)=   0.000000  celldm(6)=   0.000000

     crystal axes: (cart. coord. in units of alat)
               a(1) = (   1.000000   0.000000   0.000000 )
               a(2) = (  -0.500000   0.866025   0.000000 )
               a(3) = (   0.000000   0.000000   1.257862 )

     reciprocal axes: (cart. coord. in units 2 pi/alat)
               b(1) = (  1.000000  0.577350  0.000000 )
               b(2) = (  0.000000  1.154701  0.000000 )
               b(3) = (  0.000000  0.000000  0.795000 )

     PseudoPot. # 1 for S  read from file:
     /ptmp/alaa/qe/2/pseudo/S_ONCV_PBE_FR-1.1.upf
     MD5 check sum: 520a35214b8921ef5a3e305e16abb38a
     Pseudo is Norm-conserving, Zval =  6.0
     Generated using ONCVPSP code by D. R. Hamann
     Using radial grid of  602 points,  6 beta functions with:
                l(1) =   0
                l(2) =   0
                l(3) =   1
                l(4) =   1
                l(5) =   1
                l(6) =   1

     PseudoPot. # 2 for Mo read from file:
     /ptmp/alaa/qe/2/pseudo/Mo_ONCV_PBE_FR-1.0.upf
     MD5 check sum: 05288ac22f87858946b79311c37e479e
     Pseudo is Norm-conserving, Zval = 14.0
     Generated using ONCVPSP code by D. R. Hamann
     Using radial grid of  602 points, 10 beta functions with:
                l(1) =   0
                l(2) =   0
                l(3) =   1
                l(4) =   1
                l(5) =   1
                l(6) =   1
                l(7) =   2
                l(8) =   2
                l(9) =   2
               l(10) =   2

     atomic species   valence    mass     pseudopotential
        S              6.00    16.00000     S ( 1.00)
        Mo            14.00    42.00000     Mo( 1.00)

     No symmetry found

   Cartesian axes

     site n.     atom                  positions (alat units)
         1           Mo  tau(   1) = (   0.1008413   0.0583485   0.1973252  )
         2           S   tau(   2) = (   0.0006129   0.1158463   0.2955026  )
         3           S   tau(   3) = (   0.0007527   0.1159294   0.0994934  )
         4           Mo  tau(   4) = (   0.0009318   0.2313992   0.1973283  )
         5           S   tau(   5) = (  -0.1008818   0.2890746   0.2945433  )
         6           S   tau(   6) = (  -0.0994866   0.2880333   0.0986871  )
         7           Mo  tau(   7) = (  -0.1007260   0.4038387   0.1958393  )
         8           S   tau(   8) = (  -0.2037874   0.4604583   0.2922598  )
         9           S   tau(   9) = (  -0.2011472   0.4607735   0.0971691  )
        10           Mo  tau(  10) = (  -0.2016896   0.5764008   0.1949348  )
        11           S   tau(  11) = (  -0.3031476   0.6325550   0.2922567  )
        12           S   tau(  12) = (  -0.3015507   0.6346812   0.0971650  )
        13           Mo  tau(  13) = (  -0.3006524   0.7501171   0.1958346  )
        14           S   tau(  14) = (  -0.4001160   0.8073625   0.2945385  )
        15           S   tau(  15) = (  -0.4003188   0.8090931   0.0986812  )
        16           Mo  tau(  16) = (   0.3008533   0.0591907   0.1942560  )
        17           S   tau(  17) = (   0.2029205   0.1176128   0.2939280  )
        18           S   tau(  18) = (   0.1997999   0.1166632   0.0983086  )
        19           Mo  tau(  19) = (   0.2034060   0.2329274   0.1951994  )
        20           S   tau(  20) = (   0.1033013   0.2901650   0.2939304  )
        21           S   tau(  21) = (   0.1009160   0.2879389   0.0983121  )
        22           Mo  tau(  22) = (   0.1016727   0.4041934   0.1942600  )
        23           S   tau(  23) = (   0.0011499   0.4620709   0.2926635  )
        24           S   tau(  24) = (  -0.0004773   0.4607950   0.0970513  )
        25           Mo  tau(  25) = (  -0.0001163   0.5769670   0.1940216  )
        26           S   tau(  26) = (  -0.1004811   0.6348307   0.2920400  )
        27           S   tau(  27) = (  -0.1013297   0.6343385   0.0966316  )
        28           Mo  tau(  28) = (  -0.1004124   0.7506802   0.1940195  )
        29           S   tau(  29) = (  -0.1992823   0.8092222   0.2926594  )
        30           S   tau(  30) = (  -0.2011991   0.8084503   0.0970474  )
        31           Mo  tau(  31) = (   0.5001364   0.0596622   0.1907889  )
        32           S   tau(  32) = (   0.4037736   0.1225686   0.2878539  )
        33           S   tau(  33) = (   0.3990415   0.1158543   0.0921321  )
        34           Mo  tau(  34) = (   0.4042776   0.2344970   0.1855740  )
        35           S   tau(  35) = (   0.3145139   0.2970747   0.2875197  )
        36           S   tau(  36) = (   0.3000096   0.2887015   0.0908177  )
        37           Mo  tau(  37) = (   0.3052048   0.4061079   0.1855750  )
        38           S   tau(  38) = (   0.2080245   0.4616335   0.2878562  )
        39           S   tau(  39) = (   0.1998402   0.4608904   0.0921341  )
        40           Mo  tau(  40) = (   0.2017248   0.5765403   0.1907905  )
        41           S   tau(  41) = (   0.1017649   0.6342119   0.2903358  )
        42           S   tau(  42) = (   0.0992956   0.6350418   0.0950410  )
        43           Mo  tau(  43) = (   0.1001665   0.7506741   0.1933268  )
        44           S   tau(  44) = (   0.0001045   0.8102841   0.2903348  )
        45           S   tau(  45) = (  -0.0004093   0.8077308   0.0950396  )
        46           Mo  tau(  46) = (   0.6997629   0.0582625   0.1944705  )
        47           S   tau(  47) = (   0.5967050   0.1194564   0.2895313  )
        48           S   tau(  48) = (   0.6018713   0.1161083   0.0931502  )
        49           Mo  tau(  49) = (   0.5968445   0.2319227   0.1889080  )
        50           S   tau(  50) = (   0.5021265   0.2893743   0.0874597  )
        51           Mo  tau(  51) = (   0.4955568   0.4016146   0.1845304  )
        52           S   tau(  52) = (   0.4016460   0.4634141   0.0874538  )
        53           Mo  tau(  53) = (   0.3992547   0.5741731   0.1888990  )
        54           S   tau(  54) = (   0.3017918   0.6302752   0.2895287  )
        55           S   tau(  55) = (   0.3014685   0.6364260   0.0931450  )
        56           Mo  tau(  56) = (   0.3003186   0.7501249   0.1944681  )
        57           S   tau(  57) = (   0.1994575   0.8079995   0.2922621  )
        58           S   tau(  58) = (   0.2007960   0.8087740   0.0962056  )
        59           Mo  tau(  59) = (   0.9002868   0.0579261   0.1969577  )
        60           S   tau(  60) = (   0.7987917   0.1155487   0.2940889  )
        61           S   tau(  61) = (   0.8011305   0.1156771   0.0980667  )
        62           Mo  tau(  62) = (   0.7990699   0.2309051   0.1958617  )
        63           S   tau(  63) = (   0.6931162   0.2883395   0.2907210  )
        64           S   tau(  64) = (   0.7001537   0.2871827   0.0946400  )
        65           Mo  tau(  65) = (   0.6959495   0.4023168   0.1928021  )
        66           S   tau(  66) = (   0.5879754   0.4549670   0.2878597  )
        67           S   tau(  67) = (   0.5970644   0.4602112   0.0919045  )
        68           Mo  tau(  68) = (   0.5963687   0.5748014   0.1927969  )
        69           S   tau(  69) = (   0.4962486   0.6293346   0.2907144  )
        70           S   tau(  70) = (   0.4987674   0.6360071   0.0946310  )
        71           Mo  tau(  71) = (   0.4994835   0.7498098   0.1958550  )
        72           S   tau(  72) = (   0.3994453   0.8072418   0.2940859  )
        73           S   tau(  73) = (   0.4007232   0.8092053   0.0980632  )

     number of k points=     4
                       cart. coord. in units 2pi/alat
        k(    1) = (   0.0000000   0.0000000   0.0000000), wk =   0.2500000
        k(    2) = (   0.0000000  -0.5773503   0.0000000), wk =   0.2500000
        k(    3) = (   0.5000000  -0.2886751   0.0000000), wk =   0.2500000
        k(    4) = (  -0.5000000  -0.2886751   0.0000000), wk =   0.2500000

     Initial potential from superposition of free atoms

     starting charge  635.23447, renormalised to  638.00000

     negative rho (up, down):  1.427E-02 0.000E+00
     Starting wfcs are random

     Self-consistent Calculation

     iteration #  1     ecut=    30.00 Ry     beta= 0.70
     Davidson diagonalization with overlap
     ethr =  1.00E-02,  avg # of iterations = 10.8

     Threshold (ethr) on eigenvalues was too large:
     Diagonalizing with lowered threshold

     Davidson diagonalization with overlap
     ethr =  5.95E-04,  avg # of iterations =  5.8

     negative rho (up, down):  2.391E-03 0.000E+00

     total energy              =   -4413.74936727 Ry
     Harris-Foulkes estimate   =   -4415.16544353 Ry
     estimated scf accuracy    <       2.29139265 Ry

[...]

     negative rho (up, down):  6.280E-08 0.000E+00

[...]

     total energy              =   -4414.54514389 Ry
     Harris-Foulkes estimate   =   -4414.54514420 Ry
     estimated scf accuracy    <       0.00000155 Ry

     iteration # 19     ecut=    30.00 Ry     beta= 0.70
     Davidson diagonalization with overlap
     ethr =  2.44E-10,  avg # of iterations =  4.0

     End of self-consistent calculation

          k = 0.0000 0.0000 0.0000 ( 81851 PWs)   bands (ev):

   -61.9299 -61.9299 -61.9238 -61.9238 -61.9204 -61.9204 -61.9187 -61.9187
   -61.9160 -61.9160 -61.9150 -61.9150 -61.9069 -61.9069 -61.9069 -61.9069
   -61.9053 -61.9053 -61.9005 -61.9005 -61.8981 -61.8981 -61.8972 -61.8972
   -61.8922 -61.8922 -61.8893 -61.8893 -61.8878 -61.8878 -61.8812 -61.8812
   -61.8759 -61.8759 -61.8683 -61.8683 -61.8654 -61.8654 -61.8561 -61.8561
   -61.8496 -61.8496 -61.8445 -61.8445 -61.8375 -61.8375 -61.8318 -61.8318
   -61.7986 -61.7986 -37.7877 -37.7877 -37.7829 -37.7829 -37.7778 -37.7778
   -37.7716 -37.7716 -37.7691 -37.7691 -37.7642 -37.7642 -37.7602 -37.7602
   -37.7565 -37.7565 -37.7508 -37.7508 -37.7500 -37.7500 -37.7472 -37.7472
   -37.7377 -37.7377 -37.7314 -37.7314 -37.7197 -37.7197 -37.7157 -37.7157
   -37.7099 -37.7099 -37.7039 -37.7039 -37.6987 -37.6987 -37.6910 -37.6910
   -37.6801 -37.6801 -37.6780 -37.6780 -37.6634 -37.6634 -37.6536 -37.6536
   -37.6459 -37.6459 -37.5949 -37.5949 -35.3837 -35.3837 -35.3787 -35.3787
   -35.3716 -35.3716 -35.3629 -35.3629 -35.3570 -35.3570 -35.3526 -35.3526
   -35.3516 -35.3516 -35.3506 -35.3506 -35.3469 -35.3469 -35.3394 -35.3394
   -35.3362 -35.3362 -35.3219 -35.3219 -35.3074 -35.3074 -35.3050 -35.3050
   -35.2998 -35.2998 -35.2946 -35.2946 -35.2801 -35.2801 -35.2685 -35.2685
   -35.2522 -35.2522 -35.2499 -35.2499 -35.2453 -35.2453 -35.2435 -35.2435
   -35.2349 -35.2349 -35.2326 -35.2326 -35.2293 -35.2293 -35.2265 -35.2265
   -35.2240 -35.2240 -35.2194 -35.2194 -35.2161 -35.2161 -35.2108 -35.2108
   -35.2054 -35.2054 -35.2020 -35.2020 -35.1981 -35.1981 -35.1954 -35.1954
   -35.1935 -35.1935 -35.1839 -35.1839 -35.1802 -35.1802 -35.1769 -35.1769
   -35.1734 -35.1734 -35.1689 -35.1689 -35.1636 -35.1636 -35.1594 -35.1594
   -35.1555 -35.1555 -35.1496 -35.1496 -35.1345 -35.1345 -35.1197 -35.1197
   -35.1039 -35.1039 -35.0779 -35.0779 -35.0571 -35.0571 -34.9986 -34.9986
   -15.1123 -15.1123 -14.6051 -14.6051 -14.5973 -14.5973 -14.5948 -14.5948
   -14.5915 -14.5915 -14.5691 -14.5691 -14.4528 -14.4528 -13.8197 -13.8197
   -13.8057 -13.8057 -13.7846 -13.7846 -13.7733 -13.7733 -13.7641 -13.7641
   -13.7243 -13.7243 -13.7113 -13.7113 -13.6301 -13.6301 -13.6217 -13.6217
   -13.6016 -13.6016 -13.5972 -13.5972 -13.5863 -13.5863 -13.5702 -13.5702
   -13.5506 -13.5506 -13.5482 -13.5482 -13.5390 -13.5390 -13.5192 -13.5192
   -13.4496 -13.4496 -13.4118 -13.4118 -13.3019 -13.3019 -13.2872 -13.2872
   -13.2839 -13.2839 -13.2687 -13.2687 -13.2492 -13.2492 -13.2399 -13.2399
   -13.2045 -13.2045 -13.2022 -13.2022 -13.1989 -13.1989 -13.1864 -13.1864
   -13.1791 -13.1791 -13.1719 -13.1719 -13.1637 -13.1637 -13.1395 -13.1395
   -13.1351 -13.1351 -13.1216 -13.1216 -13.0623 -13.0623 -13.0608 -13.0608
   -13.0164 -13.0164 -13.0109 -13.0109 -13.0020 -13.0020 -12.9909 -12.9909
    -6.6408  -6.6408  -6.6263  -6.6263  -6.6130  -6.6130  -6.5930  -6.5930
    -6.5669  -6.5669  -6.5382  -6.5382  -6.5142  -6.5142  -6.3243  -6.3243
    -6.3136  -6.3136  -6.2946  -6.2946  -6.2828  -6.2828  -6.2567  -6.2567
    -6.2501  -6.2501  -6.2297  -6.2297  -6.2121  -6.2121  -6.1640  -6.1640
    -6.1506  -6.1506  -6.1419  -6.1419  -6.1382  -6.1382  -6.1304  -6.1304
    -6.1212  -6.1212  -6.1201  -6.1201  -6.1179  -6.1179  -6.1016  -6.1016
    -6.1008  -6.1008  -6.0834  -6.0834  -6.0093  -6.0093  -5.9761  -5.9761
    -5.9422  -5.9422  -5.9304  -5.9304  -5.8099  -5.8099  -5.5958  -5.5958
    -5.5732  -5.5732  -5.5628  -5.5628  -5.5441  -5.5441  -5.4913  -5.4913
    -5.4510  -5.4510  -5.2961  -5.2961  -5.2805  -5.2805  -5.2553  -5.2553
    -5.1698  -5.1698  -5.1593  -5.1593  -5.0893  -5.0893  -5.0507  -5.0507
    -5.0303  -5.0303  -5.0169  -5.0169  -4.9993  -4.9993  -4.9862  -4.9862
    -4.9760  -4.9760  -4.9721  -4.9721  -4.9562  -4.9562  -4.9354  -4.9354
    -4.9312  -4.9312  -4.8808  -4.8808  -4.8528  -4.8528  -4.8075  -4.8075
    -4.7798  -4.7798  -4.7550  -4.7550  -4.7439  -4.7439  -4.7184  -4.7184
    -4.6995  -4.6995  -4.6514  -4.6514  -4.6145  -4.6145  -4.6017  -4.6017
    -4.5582  -4.5582  -4.5498  -4.5498  -4.4739  -4.4739  -4.3572  -4.3572
    -4.3346  -4.3346  -4.3305  -4.3305  -4.3250  -4.3250  -4.3059  -4.3059
    -4.2879  -4.2879  -4.2333  -4.2333  -4.2134  -4.2134  -4.2072  -4.2072
    -4.1988  -4.1988  -4.1891  -4.1891  -4.1773  -4.1773  -4.1677  -4.1677
    -4.1448  -4.1448  -4.1407  -4.1407  -4.1096  -4.1096  -4.0971  -4.0971
    -4.0745  -4.0745  -4.0624  -4.0624  -3.9835  -3.9835  -3.9619  -3.9619
    -3.9469  -3.9469  -3.8738  -3.8738  -3.8233  -3.8233  -3.7665  -3.7665
[...]
    -3.0870  -3.0870  -3.0431  -3.0431  -3.0177  -3.0177  -2.9775  -2.9775
    -2.9496  -2.9496  -2.9374  -2.9374  -2.8945  -2.8945  -2.8769  -2.8769
    -2.8660  -2.8660  -2.8521  -2.8521  -2.8427  -2.8427  -2.8135  -2.8135
    -2.7205  -2.7205  -2.6832  -2.6832  -2.6276  -2.6276  -2.6149  -2.6149
    -2.5597  -2.5597  -2.4840  -2.4840  -2.4650  -2.4650  -2.4247  -2.4247
    -2.2949  -2.2949  -2.2942  -2.2942  -2.2781  -2.2781  -2.2619  -2.2619
    -2.2573  -2.2573  -2.2458  -2.2458  -2.2214  -2.2214  -2.2085  -2.2085
    -2.1956  -2.1956  -2.1842  -2.1842  -2.1725  -2.1725  -2.1690  -2.1690
    -1.9552  -1.9552  -1.9191  -1.9191  -1.9138  -1.9138  -1.9064  -1.9064
    -1.9007  -1.9007  -1.8950  -1.8950  -1.8771  -1.8771  -1.8541  -1.8541
    -1.8338  -1.8338  -1.8201  -1.8201  -1.8118  -1.8118  -1.7554  -1.7554
    -1.5755  -1.5755  -1.5176  -1.5176  -1.4991  -1.4991  -1.4914  -1.4914
    -1.4802  -1.4802  -1.4534  -1.4534  -1.4396  -1.4396  -1.4131  -1.4131
    -1.3659  -1.3659  -1.3370  -1.3370  -1.3050  -1.3050  -1.2391  -1.2391
    -1.1648  -1.1648  -1.1243  -1.1243  -0.9158  -0.9158

[...]

          k = 0.5000-0.2887 0.0000 ( 82012 PWs)   bands (ev):

[...]

          k =-0.5000-0.2887 0.0000 ( 82012 PWs)   bands (ev):

   -61.9292 -61.9292 -61.9252 -61.9252 -61.9208 -61.9208 -61.9190 -61.9190
   -61.9155 -61.9155 -61.9142 -61.9142 -61.9071 -61.9071 -61.9065 -61.9065
   -61.9055 -61.9055 -61.9013 -61.9013 -61.8983 -61.8983 -61.8968 -61.8968
   -61.8923 -61.8923 -61.8891 -61.8891 -61.8881 -61.8881 -61.8811 -61.8811
   -61.8759 -61.8759 -61.8683 -61.8683 -61.8655 -61.8655 -61.8562 -61.8562
   -61.8496 -61.8496 -61.8445 -61.8445 -61.8375 -61.8375 -61.8319 -61.8319
   -61.7986 -61.7986 -37.7873 -37.7873 -37.7806 -37.7806 -37.7766 -37.7766
   -37.7733 -37.7733 -37.7706 -37.7706 -37.7664 -37.7664 -37.7641 -37.7641
   -37.7572 -37.7572 -37.7549 -37.7549 -37.7462 -37.7462 -37.7421 -37.7421
   -37.7316 -37.7316 -37.7277 -37.7277 -37.7247 -37.7247 -37.7182 -37.7182
   -37.7152 -37.7152 -37.6986 -37.6986 -37.6961 -37.6961 -37.6883 -37.6883
   -37.6849 -37.6849 -37.6831 -37.6831 -37.6630 -37.6630 -37.6523 -37.6523
   -37.6446 -37.6446 -37.5952 -37.5952 -35.3810 -35.3810 -35.3783 -35.3783
   -35.3765 -35.3765 -35.3671 -35.3671 -35.3631 -35.3631 -35.3600 -35.3600
   -35.3488 -35.3488 -35.3456 -35.3456 -35.3371 -35.3371 -35.3333 -35.3333
   -35.3297 -35.3297 -35.3235 -35.3235 -35.3153 -35.3153 -35.3030 -35.3030
   -35.2949 -35.2949 -35.2857 -35.2857 -35.2797 -35.2797 -35.2687 -35.2687
   -35.2678 -35.2678 -35.2586 -35.2586 -35.2508 -35.2508 -35.2405 -35.2405
   -35.2387 -35.2387 -35.2367 -35.2367 -35.2294 -35.2294 -35.2251 -35.2251
   -35.2191 -35.2191 -35.2183 -35.2183 -35.2143 -35.2143 -35.2080 -35.2080
   -35.2039 -35.2039 -35.1996 -35.1996 -35.1942 -35.1942 -35.1910 -35.1910
   -35.1887 -35.1887 -35.1875 -35.1875 -35.1838 -35.1838 -35.1800 -35.1800
   -35.1760 -35.1760 -35.1727 -35.1727 -35.1684 -35.1684 -35.1636 -35.1636
   -35.1498 -35.1498 -35.1454 -35.1454 -35.1331 -35.1331 -35.1198 -35.1198
   -35.0996 -35.0996 -35.0760 -35.0760 -35.0597 -35.0597 -35.0002 -35.0002
   -14.9946 -14.9946 -14.9483 -14.9483 -14.7097 -14.7097 -14.6716 -14.6716
   -14.2587 -14.2587 -14.2470 -14.2470 -14.2210 -14.2210 -14.1835 -14.1835
   -14.0690 -14.0690 -13.9779 -13.9779 -13.7698 -13.7698 -13.7539 -13.7539
   -13.7223 -13.7223 -13.7019 -13.7019 -13.6853 -13.6853 -13.6840 -13.6840
   -13.6200 -13.6200 -13.6022 -13.6022 -13.4859 -13.4859 -13.4723 -13.4723
   -13.4612 -13.4612 -13.4359 -13.4359 -13.4029 -13.4029 -13.3829 -13.3829
   -13.3749 -13.3749 -13.3480 -13.3480 -13.3361 -13.3361 -13.3330 -13.3330
   -13.3213 -13.3213 -13.3080 -13.3080 -13.3038 -13.3038 -13.2870 -13.2870
   -13.2727 -13.2727 -13.2346 -13.2346 -13.2307 -13.2307 -13.2016 -13.2016
   -13.1950 -13.1950 -13.1323 -13.1323 -13.1259 -13.1259 -13.0999 -13.0999
   -13.0971 -13.0971 -13.0901 -13.0901 -13.0848 -13.0848 -13.0792 -13.0792
   -13.0737 -13.0737 -13.0599 -13.0599 -12.9837 -12.9837 -12.9783 -12.9783
    -6.7897  -6.7897  -6.6301  -6.6301  -6.6168  -6.6168  -6.5915  -6.5915
    -6.5532  -6.5532  -6.4839  -6.4839  -6.4555  -6.4555  -6.3684  -6.3684
    -6.3626  -6.3626  -6.3075  -6.3075  -6.3027  -6.3027  -6.2977  -6.2977
    -6.2531  -6.2531  -6.2254  -6.2254  -6.2180  -6.2180  -6.1926  -6.1926
    -6.1849  -6.1849  -6.1801  -6.1801  -6.1765  -6.1765  -6.1566  -6.1566
    -6.0941  -6.0941  -6.0027  -6.0027  -5.9881  -5.9881  -5.9607  -5.9607
    -5.9569  -5.9569  -5.9307  -5.9307  -5.9215  -5.9215  -5.9085  -5.9085
    -5.8939  -5.8939  -5.8921  -5.8921  -5.8577  -5.8577  -5.8401  -5.8401
    -5.7988  -5.7988  -5.6637  -5.6637  -5.6560  -5.6560  -5.5346  -5.5346
    -5.3920  -5.3920  -5.3812  -5.3812  -5.3640  -5.3640  -5.1583  -5.1583
    -5.0999  -5.0999  -5.0692  -5.0692  -5.0461  -5.0461  -5.0400  -5.0400
    -5.0154  -5.0154  -5.0027  -5.0027  -4.9901  -4.9901  -4.9567  -4.9567
    -4.9163  -4.9163  -4.9069  -4.9069  -4.9031  -4.9031  -4.8935  -4.8935
    -4.8763  -4.8763  -4.8703  -4.8703  -4.8615  -4.8615  -4.8245  -4.8245
    -4.8062  -4.8062  -4.7973  -4.7973  -4.7799  -4.7799  -4.7516  -4.7516
    -4.7183  -4.7183  -4.6596  -4.6596  -4.6332  -4.6332  -4.5798  -4.5798
    -4.5532  -4.5532  -4.5351  -4.5351  -4.5083  -4.5083  -4.4776  -4.4776
    -4.4619  -4.4619  -4.3659  -4.3659  -4.3561  -4.3561  -4.3080  -4.3080
    -4.2910  -4.2910  -4.2576  -4.2576  -4.2389  -4.2389  -4.2297  -4.2297
    -4.2219  -4.2219  -4.1841  -4.1841  -4.1755  -4.1755  -4.1636  -4.1636
    -4.1331  -4.1331  -4.0872  -4.0872  -4.0793  -4.0793  -4.0604  -4.0604
    -4.0490  -4.0490  -3.9766  -3.9766  -3.9635  -3.9635  -3.9499  -3.9499
    -3.9195  -3.9195  -3.8690  -3.8690  -3.8430  -3.8430  -3.7885  -3.7885
[...]
    -2.9148  -2.9148  -2.9050  -2.9050  -2.8783  -2.8783  -2.8683  -2.8683
    -2.8479  -2.8479  -2.8328  -2.8328  -2.8168  -2.8168  -2.8008  -2.8008
    -2.7900  -2.7900  -2.7801  -2.7801  -2.7661  -2.7661  -2.7434  -2.7434
    -2.7406  -2.7406  -2.7149  -2.7149  -2.7055  -2.7055  -2.6779  -2.6779
    -2.6698  -2.6698  -2.6552  -2.6552  -2.6262  -2.6262  -2.6046  -2.6046
    -2.5588  -2.5588  -2.5480  -2.5480  -2.5301  -2.5301  -2.4320  -2.4320
    -2.3322  -2.3322  -2.3247  -2.3247  -2.2242  -2.2242  -2.2119  -2.2119
    -2.1625  -2.1625  -2.1200  -2.1200  -2.0722  -2.0722  -2.0475  -2.0475
    -1.9932  -1.9932  -1.9314  -1.9314  -1.9202  -1.9202  -1.9045  -1.9045
    -1.8612  -1.8612  -1.8452  -1.8452  -1.8267  -1.8267  -1.7946  -1.7946
    -1.7720  -1.7720  -1.7298  -1.7298  -1.6957  -1.6957  -1.6750  -1.6750
    -1.6601  -1.6601  -1.6336  -1.6336  -1.5953  -1.5953  -1.5771  -1.5771
    -1.5525  -1.5525  -1.5304  -1.5304  -1.4759  -1.4759  -1.3454  -1.3454
    -1.3355  -1.3355  -1.2881  -1.2881  -1.1931  -1.1931  -1.1687  -1.1687
    -1.1488  -1.1488  -1.0860  -1.0860  -0.9907  -0.9907

     highest occupied level (ev):    -0.9158

!    total energy              =   -4414.54514359 Ry
     Harris-Foulkes estimate   =   -4414.54514409 Ry
     estimated scf accuracy    <       0.00000054 Ry

     The total energy is the sum of the following terms:

     one-electron contribution =  -27231.83310798 Ry
     hartree contribution      =   13602.22725028 Ry
     xc contribution           =    -607.80511757 Ry
     ewald contribution        =    9822.86583168 Ry

     convergence has been achieved in  19 iterations

     Writing output data file unfold.save/

     General routines

     Parallel routines

   This run was terminated on:  14: 3:27   9Jun2021

   JOB DONE.